VER
4

OBJSENSE
MIN

VAR
49 2
HVECQRE 33
HVECPSD 16

CON
33 1
L= 33

OBJACOORD
1
0 1.0

ACOORD
52
0 1 1.0
1 2 1.0
2 3 1.0
3 4 1.0
4 5 1.0
5 6 1.0
6 7 1.0
7 8 1.0
8 9 1.0
9 10 1.0
10 11 1.0
11 12 1.0
12 13 1.0
13 14 1.0
14 15 1.0
15 16 1.0
16 17 1.0
16 20 1.0
16 25 1.0
16 32 1.0
17 17 1.0
17 33 -1.0
18 18 1.0
18 34 -1.0
19 19 -1.0
19 35 -1.0
20 20 1.0
20 36 -1.0
21 21 1.0
21 37 -1.0
22 22 1.0
22 38 -1.0
23 26 1.0
23 39 -1.0
24 27 1.0
24 40 -1.0
25 25 1.0
25 41 -1.0
26 23 1.0
26 42 -1.0
27 24 1.0
27 43 -1.0
28 28 1.0
28 44 -1.0
29 29 1.0
29 45 -1.0
30 30 1.0
30 46 -1.0
31 31 -1.0
31 47 -1.0
32 32 1.0
32 48 -1.0

BCOORD
17
0 0.17846823913938753
1 0.10053969644583868
2 0.2261739136345146
3 0.423640037917626
4 0.0905355889453594
5 -0.17740842435842097
6 0.11814003622697881
7 -0.14482987798675429
8 0.2785199032665557
9 -0.01750145919617321
10 -0.010478490937138903
11 0.15814503124825652
12 0.12391861173799597
13 0.17032485423356797
14 0.05756151459694693
15 0.11937181967643092
16 1.0
